Welcome to the CBC MILP Solver 
Version: 2.10.12 
Build Date: Aug 20 2024 

command line - /opt/homebrew/bin/cbc computational_data/real_data/lp/iris_trial_012.lp seconds 10.0 solve solu computational_data/real_data/solutions/iris_trial_012.sol (default strategy 1)
seconds was changed from 1e+100 to 10
Continuous objective value is 5.98095 - 0.00 seconds
Cgl0003I 0 fixed, 0 tightened bounds, 38 strengthened rows, 0 substitutions
Cgl0003I 0 fixed, 0 tightened bounds, 44 strengthened rows, 0 substitutions
Cgl0003I 0 fixed, 0 tightened bounds, 37 strengthened rows, 0 substitutions
Cgl0003I 0 fixed, 0 tightened bounds, 20 strengthened rows, 0 substitutions
Cgl0003I 0 fixed, 0 tightened bounds, 12 strengthened rows, 0 substitutions
Cgl0003I 0 fixed, 0 tightened bounds, 7 strengthened rows, 0 substitutions
Cgl0003I 0 fixed, 0 tightened bounds, 4 strengthened rows, 0 substitutions
Cgl0003I 0 fixed, 0 tightened bounds, 2 strengthened rows, 0 substitutions
Cgl0003I 0 fixed, 0 tightened bounds, 2 strengthened rows, 0 substitutions
Cgl0004I processed model has 55 rows, 31 columns (31 integer (31 of which binary)) and 288 elements
Cutoff increment increased from 1e-05 to 0.9999
Cbc0038I Initial state - 30 integers unsatisfied sum - 4.98095
Cbc0038I Pass   1: suminf.    4.98095 (30) obj. 5.98095 iterations 0
Cbc0038I Pass   2: suminf.    1.16667 (7) obj. 6.83333 iterations 24
Cbc0038I Pass   3: suminf.    0.00000 (0) obj. 7 iterations 7
Cbc0038I Solution found of 7
Cbc0038I Before mini branch and bound, 1 integers at bound fixed and 0 continuous
Cbc0038I Full problem 55 rows 31 columns, reduced to 52 rows 30 columns
Cbc0038I Mini branch and bound did not improve solution (0.00 seconds)
Cbc0038I Round again with cutoff of 5.99819
Cbc0038I Pass   4: suminf.    4.98095 (30) obj. 5.98095 iterations 0
Cbc0038I Pass   5: suminf.    4.99819 (30) obj. 5.99819 iterations 1
Cbc0038I Pass   6: suminf.    4.99819 (30) obj. 5.99819 iterations 2
Cbc0038I Pass   7: suminf.    4.99819 (30) obj. 5.99819 iterations 0
Cbc0038I Pass   8: suminf.    4.99819 (30) obj. 5.99819 iterations 1
Cbc0038I Pass   9: suminf.    4.99819 (30) obj. 5.99819 iterations 1
Cbc0038I Pass  10: suminf.    4.99819 (30) obj. 5.99819 iterations 1
Cbc0038I Pass  11: suminf.    4.98095 (30) obj. 5.98095 iterations 1
Cbc0038I Pass  12: suminf.    4.99819 (30) obj. 5.99819 iterations 1
Cbc0038I Pass  13: suminf.    4.99819 (30) obj. 5.99819 iterations 1
Cbc0038I Pass  14: suminf.    4.99819 (30) obj. 5.99819 iterations 1
Cbc0038I Pass  15: suminf.    4.99819 (30) obj. 5.99819 iterations 1
Cbc0038I Pass  16: suminf.    4.99819 (30) obj. 5.99819 iterations 1
Cbc0038I Pass  17: suminf.    4.99819 (30) obj. 5.99819 iterations 1
Cbc0038I Pass  18: suminf.    4.99819 (30) obj. 5.99819 iterations 1
Cbc0038I Pass  19: suminf.    4.99819 (30) obj. 5.99819 iterations 1
Cbc0038I Pass  20: suminf.    4.99819 (30) obj. 5.99819 iterations 0
Cbc0038I Pass  21: suminf.    4.99819 (30) obj. 5.99819 iterations 1
Cbc0038I Pass  22: suminf.    4.99819 (30) obj. 5.99819 iterations 2
Cbc0038I Pass  23: suminf.    4.99819 (30) obj. 5.99819 iterations 2
Cbc0038I Pass  24: suminf.    4.99819 (30) obj. 5.99819 iterations 1
Cbc0038I Pass  25: suminf.    4.99819 (30) obj. 5.99819 iterations 1
Cbc0038I Pass  26: suminf.    4.99819 (30) obj. 5.99819 iterations 1
Cbc0038I Pass  27: suminf.    4.99819 (30) obj. 5.99819 iterations 1
Cbc0038I Pass  28: suminf.    4.99819 (30) obj. 5.99819 iterations 1
Cbc0038I Pass  29: suminf.    4.99819 (30) obj. 5.99819 iterations 1
Cbc0038I Pass  30: suminf.    4.99819 (30) obj. 5.99819 iterations 1
Cbc0038I Pass  31: suminf.    4.99819 (30) obj. 5.99819 iterations 1
Cbc0038I Pass  32: suminf.    4.99819 (30) obj. 5.99819 iterations 1
Cbc0038I Pass  33: suminf.    4.99819 (30) obj. 5.99819 iterations 1
Cbc0038I No solution found this major pass
Cbc0038I Before mini branch and bound, 0 integers at bound fixed and 0 continuous
Cbc0038I Full problem 55 rows 31 columns, reduced to 53 rows 31 columns
Cbc0038I Mini branch and bound did not improve solution (0.01 seconds)
Cbc0038I After 0.01 seconds - Feasibility pump exiting with objective of 7 - took 0.00 seconds
Cbc0012I Integer solution of 7 found by feasibility pump after 0 iterations and 0 nodes (0.01 seconds)
Cbc0031I 6 added rows had average density of 10
Cbc0013I At root node, 12 cuts changed objective from 5.9809524 to 7 in 1 passes
Cbc0014I Cut generator 0 (Probing) - 0 row cuts average 0.0 elements, 0 column cuts (0 active)  in 0.000 seconds - new frequency is -100
Cbc0014I Cut generator 1 (Gomory) - 6 row cuts average 10.0 elements, 0 column cuts (0 active)  in 0.000 seconds - new frequency is 1
Cbc0014I Cut generator 2 (Knapsack) - 0 row cuts average 0.0 elements, 0 column cuts (0 active)  in 0.000 seconds - new frequency is -100
Cbc0014I Cut generator 3 (Clique) - 0 row cuts average 0.0 elements, 0 column cuts (0 active)  in 0.000 seconds - new frequency is -100
Cbc0014I Cut generator 4 (MixedIntegerRounding2) - 0 row cuts average 0.0 elements, 0 column cuts (0 active)  in 0.000 seconds - new frequency is -100
Cbc0014I Cut generator 5 (FlowCover) - 0 row cuts average 0.0 elements, 0 column cuts (0 active)  in 0.000 seconds - new frequency is -100
Cbc0014I Cut generator 6 (TwoMirCuts) - 6 row cuts average 10.0 elements, 0 column cuts (0 active)  in 0.000 seconds - new frequency is -100
Cbc0001I Search completed - best objective 7, took 0 iterations and 0 nodes (0.01 seconds)
Cbc0035I Maximum depth 0, 0 variables fixed on reduced cost
Cuts at root node changed objective from 5.98095 to 7
Probing was tried 1 times and created 0 cuts of which 0 were active after adding rounds of cuts (0.000 seconds)
Gomory was tried 1 times and created 6 cuts of which 0 were active after adding rounds of cuts (0.000 seconds)
Knapsack was tried 1 times and created 0 cuts of which 0 were active after adding rounds of cuts (0.000 seconds)
Clique was tried 1 times and created 0 cuts of which 0 were active after adding rounds of cuts (0.000 seconds)
MixedIntegerRounding2 was tried 1 times and created 0 cuts of which 0 were active after adding rounds of cuts (0.000 seconds)
FlowCover was tried 1 times and created 0 cuts of which 0 were active after adding rounds of cuts (0.000 seconds)
TwoMirCuts was tried 1 times and created 6 cuts of which 0 were active after adding rounds of cuts (0.000 seconds)
ZeroHalf was tried 1 times and created 0 cuts of which 0 were active after adding rounds of cuts (0.000 seconds)

Result - Optimal solution found

Objective value:                7.00000000
Enumerated nodes:               0
Total iterations:               0
Time (CPU seconds):             0.01
Time (Wallclock seconds):       0.01

Total time (CPU seconds):       0.01   (Wallclock seconds):       0.01

